c instance by G2
c solution = 110011110010100
c Known solution cost is 76
p cnf 15 15
w 3 6 9 0 9 4 3 1 1 7 7 2 7 8 9
8 -13 9 0
-8 7 14 0
9 1 3 0
-5 -12 -6 0
-10 -7 12 0
-1 -10 -5 0
-2 10 5 0
12 -15 4 0
-13 -3 -7 0
-10 -4 13 0
-10 -7 14 0
-4 6 5 0
-2 -3 12 0
-13 11 -15 0
12 3 8 0
